s td 117 10 126
b 1 1 2 15
b 2 13 14 28
b 3 99 113 114
b 4 112 125 126
b 5 2 3 15 16
b 6 12 13 27 28
b 7 3 4 18 33 48 63 78 93 108 123
b 8 4 5 18 33 48 63 78 93 108 123
b 9 5 18 20 33 48 63 78 93 108 123
b 10 5 20 33 35 48 63 78 93 108 123
b 11 5 7 20 35 48 63 78 93 108 123
b 12 5 6 7 20
b 13 7 20 22 35 48 63 78 93 108 123
b 14 7 22 35 48 50 63 78 93 108 123
b 15 7 22 35 37 50 63 78 93 108 123
b 16 7 22 37 50 63 65 78 93 108 123
b 17 7 22 37 50 52 65 78 93 108 123
b 18 7 22 37 52 65 78 80 93 108 123
b 19 7 22 37 52 65 67 80 93 108 123
b 20 7 22 37 52 67 80 93 95 108 123
b 21 7 22 37 52 67 80 82 95 108 123
b 22 7 22 37 52 67 82 95 108 110 123
b 23 7 22 37 52 67 82 95 97 110 123
b 24 7 22 37 52 67 82 97 98 110 123
b 25 7 22 37 52 67 82 84 97 98
b 26 7 22 37 52 67 69 82 84 97
b 27 7 22 37 52 54 67 69 82 84
b 28 7 22 37 39 52 54 67 69 84
b 29 7 22 24 37 39 52 54 69 84
b 30 7 11 22 24 37 39 54 69 84
b 31 7 9 11 22 24 37
b 32 7 8 9 22
b 33 9 10 11 24
b 34 9 22 23 24 37
b 35 11 24 26 39 54 69 84
b 36 11 26 39 41 54 69 84
b 37 11 26 41 42 54 69 84
b 38 11 26 27 41 42
b 39 11 12 26 27 42
b 40 12 27 28 42
b 41 41 42 54 56 69 84
b 42 41 54 55 56 69
b 43 56 69 70 84
b 44 26 39 40 41 54
b 45 11 24 25 26 39
b 46 24 37 38 39 52
b 47 39 52 53 54 67
b 48 54 67 68 69 82
b 49 69 82 83 84 97
b 50 97 98 110 123 125
b 51 97 98 110 111 125
b 52 110 123 124 125
b 53 82 95 96 97 110
b 54 95 108 109 110 123
b 55 67 80 81 82 95
b 56 80 93 94 95 108
b 57 52 65 66 67 80
b 58 65 78 79 80 93
b 59 37 50 51 52 65
b 60 50 63 64 65 78
b 61 22 35 36 37 50
b 62 35 48 49 50 63
b 63 7 20 21 22 35
b 64 20 33 34 35 48
b 65 5 18 19 20 33
b 66 3 18 33 48 63 78 93 108 121 123
b 67 3 18 33 48 63 78 93 106 108 121
b 68 3 18 33 48 63 78 91 93 106 121
b 69 3 18 33 48 63 76 78 91 106 121
b 70 3 18 33 48 61 63 76 91 106 121
b 71 3 18 33 46 48 61 76 91 106 121
b 72 3 18 31 33 46 61 76 91 106 121
b 73 3 18 31 46 61 76 91 106 119 121
b 74 3 18 31 46 61 76 91 104 106 119
b 75 3 18 31 46 61 76 89 91 104 119
b 76 3 18 31 46 61 74 76 89 104 119
b 77 3 18 31 46 59 61 74 89 104 119
b 78 3 18 31 44 46 59 74 89 104 119
b 79 3 18 29 31 44 59 74 89 104 119
b 80 3 16 18 29 31 44
b 81 3 15 16 29
b 82 3 16 17 18 31
b 83 16 29 30 31 44
b 84 29 44 59 74 89 104 117 119
b 85 29 44 59 74 89 102 104 117
b 86 29 44 59 74 87 89 102 117
b 87 29 44 59 72 74 87 102 117
b 88 29 44 59 71 72 87 102 117
b 89 29 44 58 59 71 72
b 90 29 43 44 58 71
b 91 43 57 58 71
b 92 71 72 87 102 116 117
b 93 71 72 87 101 102 116
b 94 71 72 86 87 101 116
b 95 71 86 101 114 116
b 96 71 86 100 101 114
b 97 71 85 86 100 114
b 98 101 114 115 116
b 99 59 72 73 74 87
b 100 74 87 88 89 102
b 101 89 102 103 104 117
b 102 104 117 118 119
b 103 31 44 45 46 59
b 104 46 59 60 61 74
b 105 61 74 75 76 89
b 106 76 89 90 91 104
b 107 91 104 105 106 119
b 108 106 119 120 121
b 109 18 31 32 33 46
b 110 33 46 47 48 61
b 111 48 61 62 63 76
b 112 63 76 77 78 91
b 113 78 91 92 93 106
b 114 93 106 107 108 121
b 115 108 121 122 123
b 116 85 99 100 114
b 117 98 111 112 125
1 5
2 6
3 116
4 117
5 81
6 40
7 8
7 66
8 9
9 10
9 65
10 11
10 64
11 12
11 13
13 14
13 63
14 15
14 62
15 16
15 61
16 17
16 60
17 18
17 59
18 19
18 58
19 20
19 57
20 21
20 56
21 22
21 55
22 23
22 54
23 24
23 53
24 25
24 50
25 26
26 27
26 49
27 28
27 48
28 29
28 47
29 30
29 46
30 31
30 35
31 32
31 33
31 34
35 36
35 45
36 37
36 44
37 38
37 41
38 39
39 40
41 42
41 43
50 51
50 52
51 117
66 67
66 115
67 68
67 114
68 69
68 113
69 70
69 112
70 71
70 111
71 72
71 110
72 73
72 109
73 74
73 108
74 75
74 107
75 76
75 106
76 77
76 105
77 78
77 104
78 79
78 103
79 80
79 84
80 81
80 82
80 83
84 85
84 102
85 86
85 101
86 87
86 100
87 88
87 99
88 89
88 92
89 90
90 91
92 93
93 94
94 95
95 96
95 98
96 97
97 116
